NAME: tsp20_15
COMMENT: 20-tsp problem (Padberg/Rinaldi)
TYPE: TSP
DIMENSION: 20
EDGE_WEIGHT_TYPE : EUC_2D
NODE_COORD_SECTION
1 23 1
2 28 1
3 26 33
4 34 34
5 10 18
6 29 22
7 37 2
8 24 10
9 14 38
10 11 33
11 27 33
12 18 6
13 22 13
14 9 8
15 8 33
16 23 12
17 0 28
18 18 2
19 17 27
20 13 9
